[runlim] version:		1.10
[runlim] time limit:		311040000 seconds
[runlim] real time limit:	600 seconds
[runlim] space limit:		14000 MB
[runlim] argv[0]:		python3
[runlim] argv[1]:		-u
[runlim] argv[2]:		mip.py
[runlim] argv[3]:		graph14
[runlim] start:			Tue Jan 20 19:56:37 2026
[runlim] main pid:		205141
Building MIP model...
[runlim] sample:		10.0 time, 10.1 real, 38.6 MB
[runlim] sample:		20.0 time, 20.1 real, 41.2 MB
[runlim] sample:		30.0 time, 30.1 real, 42.4 MB
[runlim] sample:		40.0 time, 40.1 real, 44.1 MB
[runlim] sample:		50.0 time, 50.1 real, 45.0 MB
[runlim] sample:		60.0 time, 60.1 real, 46.0 MB
[runlim] sample:		70.0 time, 70.1 real, 45.4 MB
[runlim] sample:		80.0 time, 80.1 real, 48.8 MB
[runlim] sample:		89.9 time, 90.1 real, 49.2 MB
[runlim] sample:		99.9 time, 100.1 real, 50.9 MB
[runlim] sample:		109.9 time, 110.1 real, 51.3 MB
[runlim] sample:		119.9 time, 120.1 real, 51.6 MB
[runlim] sample:		129.9 time, 130.1 real, 53.7 MB
[runlim] sample:		139.9 time, 140.1 real, 54.2 MB
[runlim] sample:		149.9 time, 150.1 real, 54.3 MB
[runlim] sample:		159.9 time, 160.1 real, 54.4 MB
[runlim] sample:		169.9 time, 170.1 real, 57.1 MB
[runlim] sample:		179.9 time, 180.1 real, 57.4 MB
[runlim] sample:		189.9 time, 190.1 real, 57.7 MB
[runlim] sample:		199.9 time, 200.1 real, 57.7 MB
Build time: 203.05s
Solving MIP (minimizing number of labels)...
Version identifier: 22.1.1.0 | 2022-11-28 | 9160aff4d
CPXPARAM_Read_DataCheck                          1
Legacy callback                                  i
Tried aggregator 2 times.
MIP Presolve eliminated 447807 rows and 0 columns.
MIP Presolve modified 49070 coefficients.
Aggregator did 18358 substitutions.
Reduced MIP has 49528 rows, 18402 columns, and 451904 nonzeros.
Reduced MIP has 18402 binaries, 0 generals, 0 SOSs, and 0 indicators.
Presolve time = 1.78 sec. (1610.56 ticks)
Found incumbent of value 44.000000 after 2.24 sec. (2268.30 ticks)
Probing time = 0.03 sec. (6.86 ticks)
Tried aggregator 1 time.
Detecting symmetries...
Reduced MIP has 49528 rows, 18402 columns, and 451904 nonzeros.
Reduced MIP has 18402 binaries, 0 generals, 0 SOSs, and 0 indicators.
Presolve time = 0.55 sec. (477.05 ticks)
Probing time = 0.03 sec. (6.80 ticks)
Clique table members: 49528.
MIP emphasis: balance optimality and feasibility.
MIP search method: dynamic search.
Parallel mode: deterministic, using up to 12 threads.
[runlim] sample:		225.6 time, 210.1 real, 562.3 MB
Root relaxation solution time = 10.56 sec. (5825.07 ticks)

        Nodes                                         Cuts/
   Node  Left     Objective  IInf  Best Integer    Best Bound    ItCnt     Gap

*     0+    0                           44.0000        0.0000           100.00%
*     0+    0                           18.0000        0.0000           100.00%
      0     0        8.0000  2480       18.0000        8.0000    16334   55.56%

========== NEW INCUMBENT SOLUTION ==========
{1: 296, 2: 58, 3: 666, 4: 428, 5: 554, 6: 792, 7: 666, 8: 428, 9: 666, 10: 428, 11: 666, 12: 428, 13: 554, 14: 792, 15: 142, 16: 380, 17: 792, 18: 554, 19: 428, 20: 666, 21: 470, 22: 708, 23: 526, 24: 764, 25: 156, 26: 394, 27: 708, 28: 470, 29: 156, 30: 394, 31: 666, 32: 428, 33: 156, 34: 394, 35: 666, 36: 428, 37: 792, 38: 554, 39: 512, 40: 750, 41: 156, 42: 394, 43: 708, 44: 470, 45: 394, 46: 156, 47: 394, 48: 156, 49: 156, 50: 394, 51: 666, 52: 428, 53: 428, 54: 666, 55: 750, 56: 512, 57: 428, 58: 666, 59: 708, 60: 470, 61: 708, 62: 470, 63: 470, 64: 708, 65: 428, 66: 666, 67: 526, 68: 764, 69: 708, 70: 470, 71: 666, 72: 428, 73: 750, 74: 512, 75: 394, 76: 156, 77: 484, 78: 722, 79: 470, 80: 708, 81: 470, 82: 708, 83: 708, 84: 470, 85: 554, 86: 792, 87: 394, 88: 156, 89: 380, 90: 142, 91: 428, 92: 666, 93: 470, 94: 708, 95: 428, 96: 666, 97: 484, 98: 722, 99: 428, 100: 666, 101: 484, 102: 722, 103: 394, 104: 156, 105: 792, 106: 554, 107: 708, 108: 470, 109: 428, 110: 666, 111: 666, 112: 428, 113: 156, 114: 394, 115: 380, 116: 142, 117: 156, 118: 394, 119: 428, 120: 666, 121: 764, 122: 526, 123: 470, 124: 708, 125: 512, 126: 750, 127: 428, 128: 666, 129: 428, 130: 666, 131: 484, 132: 722, 133: 470, 134: 708, 135: 484, 136: 722, 137: 142, 138: 380, 139: 470, 140: 708, 141: 470, 142: 708, 143: 666, 144: 428, 145: 470, 146: 708, 147: 666, 148: 428, 149: 722, 150: 484, 151: 666, 152: 428, 153: 512, 154: 750, 155: 156, 156: 394, 157: 764, 158: 526, 159: 764, 160: 526, 161: 526, 162: 764, 163: 666, 164: 428, 165: 296, 166: 58, 167: 156, 168: 394, 169: 428, 170: 666, 171: 58, 172: 296, 173: 666, 174: 428, 175: 708, 176: 470, 177: 512, 178: 750, 179: 156, 180: 394, 181: 708, 182: 470, 183: 792, 184: 554, 185: 394, 186: 156, 187: 554, 188: 792, 189: 722, 190: 484, 191: 792, 192: 554, 193: 142, 194: 380, 195: 708, 196: 470, 197: 666, 198: 428, 199: 666, 200: 428, 201: 792, 202: 554, 203: 708, 204: 470, 205: 554, 206: 792, 207: 792, 208: 554, 209: 470, 210: 708, 211: 428, 212: 666, 213: 470, 214: 708, 215: 156, 216: 394, 217: 428, 218: 666, 219: 512, 220: 750, 221: 708, 222: 470, 223: 792, 224: 554, 225: 512, 226: 750, 227: 792, 228: 554, 229: 470, 230: 708, 231: 666, 232: 428, 233: 722, 234: 484, 235: 666, 236: 428, 237: 666, 238: 428, 239: 156, 240: 394, 241: 156, 242: 394, 243: 666, 244: 428, 245: 708, 246: 470, 247: 156, 248: 394, 249: 428, 250: 666, 251: 156, 252: 394, 253: 470, 254: 708, 255: 554, 256: 792, 257: 484, 258: 722, 259: 666, 260: 428, 261: 750, 262: 512, 263: 554, 264: 792, 265: 484, 266: 722, 267: 708, 268: 470, 269: 666, 270: 428, 271: 512, 272: 750, 273: 394, 274: 156, 275: 722, 276: 484, 277: 470, 278: 708, 279: 428, 280: 666, 281: 156, 282: 394, 283: 526, 284: 764, 285: 142, 286: 380, 287: 156, 288: 394, 289: 792, 290: 554, 291: 708, 292: 470, 293: 526, 294: 764, 295: 512, 296: 750, 297: 554, 298: 792, 299: 526, 300: 764, 301: 296, 302: 58, 303: 470, 304: 708, 305: 484, 306: 722, 307: 156, 308: 394, 309: 394, 310: 156, 311: 666, 312: 428, 313: 394, 314: 156, 315: 792, 316: 554, 317: 428, 318: 666, 319: 750, 320: 512, 321: 428, 322: 666, 323: 750, 324: 512, 325: 666, 326: 428, 327: 708, 328: 470, 329: 484, 330: 722, 331: 708, 332: 470, 333: 142, 334: 380, 335: 722, 336: 484, 337: 428, 338: 666, 339: 792, 340: 554, 341: 484, 342: 722, 343: 708, 344: 470, 345: 764, 346: 526, 347: 156, 348: 394, 349: 512, 350: 750, 351: 792, 352: 554, 353: 470, 354: 708, 355: 708, 356: 470, 357: 708, 358: 470, 359: 554, 360: 792, 361: 428, 362: 666, 363: 428, 364: 666, 365: 666, 366: 428, 367: 156, 368: 394, 369: 722, 370: 484, 371: 792, 372: 554, 373: 750, 374: 512, 375: 470, 376: 708, 377: 750, 378: 512, 379: 554, 380: 792, 381: 470, 382: 708, 383: 526, 384: 764, 385: 526, 386: 764, 387: 470, 388: 708, 389: 470, 390: 708, 391: 156, 392: 394, 393: 470, 394: 708, 395: 792, 396: 554, 397: 512, 398: 750, 399: 666, 400: 428, 401: 428, 402: 666, 403: 156, 404: 394, 405: 512, 406: 750, 407: 512, 408: 750, 409: 750, 410: 512, 411: 142, 412: 380, 413: 394, 414: 156, 415: 666, 416: 428, 417: 792, 418: 554, 419: 722, 420: 484, 421: 708, 422: 470, 423: 142, 424: 380, 425: 428, 426: 666, 427: 708, 428: 470, 429: 380, 430: 142, 431: 512, 432: 750, 433: 666, 434: 428, 435: 428, 436: 666, 437: 750, 438: 512, 439: 666, 440: 428, 441: 380, 442: 142, 443: 512, 444: 750, 445: 428, 446: 666, 447: 750, 448: 512, 449: 708, 450: 470, 451: 428, 452: 666, 453: 156, 454: 394, 455: 750, 456: 512, 457: 484, 458: 722, 459: 708, 460: 470, 461: 526, 462: 764, 463: 156, 464: 394, 465: 526, 466: 764, 467: 428, 468: 666, 469: 428, 470: 666, 471: 764, 472: 526, 473: 296, 474: 58, 475: 512, 476: 750, 477: 512, 478: 750, 479: 750, 480: 512, 481: 708, 482: 470, 483: 666, 484: 428, 485: 484, 486: 722, 487: 512, 488: 750, 489: 722, 490: 484, 491: 380, 492: 142, 493: 512, 494: 750, 495: 512, 496: 750, 497: 428, 498: 666, 499: 484, 500: 722, 501: 708, 502: 470, 503: 764, 504: 526, 505: 470, 506: 708, 507: 484, 508: 722, 509: 722, 510: 484, 511: 554, 512: 792, 513: 554, 514: 792, 515: 428, 516: 666, 517: 470, 518: 708, 519: 554, 520: 792, 521: 156, 522: 394, 523: 750, 524: 512, 525: 554, 526: 792, 527: 394, 528: 156, 529: 156, 530: 394, 531: 156, 532: 394, 533: 526, 534: 764, 535: 380, 536: 142, 537: 666, 538: 428, 539: 708, 540: 470, 541: 764, 542: 526, 543: 484, 544: 722, 545: 708, 546: 470, 547: 156, 548: 394, 549: 428, 550: 666, 551: 512, 552: 750, 553: 512, 554: 750, 555: 708, 556: 470, 557: 484, 558: 722, 559: 470, 560: 708, 561: 666, 562: 428, 563: 666, 564: 428, 565: 484, 566: 722, 567: 750, 568: 512, 569: 750, 570: 512, 571: 708, 572: 470, 573: 708, 574: 470, 575: 394, 576: 156, 577: 296, 578: 58, 579: 470, 580: 708, 581: 666, 582: 428, 583: 512, 584: 750, 585: 722, 586: 484, 587: 470, 588: 708, 589: 722, 590: 484, 591: 708, 592: 470, 593: 750, 594: 512, 595: 484, 596: 722, 597: 708, 598: 470, 599: 142, 600: 380, 601: 722, 602: 484, 603: 470, 604: 708, 605: 470, 606: 708, 607: 792, 608: 554, 609: 156, 610: 394, 611: 666, 612: 428, 613: 750, 614: 512, 615: 428, 616: 666, 617: 666, 618: 428, 619: 750, 620: 512, 621: 512, 622: 750, 623: 156, 624: 394, 625: 156, 626: 394, 627: 750, 628: 512, 629: 156, 630: 394, 631: 792, 632: 554, 633: 750, 634: 512, 635: 750, 636: 512, 637: 296, 638: 58, 639: 470, 640: 708, 641: 792, 642: 554, 643: 526, 644: 764, 645: 394, 646: 156, 647: 526, 648: 764, 649: 470, 650: 708, 651: 470, 652: 708, 653: 484, 654: 722, 655: 470, 656: 708, 657: 554, 658: 792, 659: 750, 660: 512, 661: 722, 662: 484, 663: 708, 664: 470, 665: 470, 666: 708, 667: 470, 668: 708, 669: 554, 670: 792, 671: 750, 672: 512, 673: 722, 674: 484, 675: 428, 676: 666, 677: 554, 678: 792, 679: 380, 680: 142, 681: 526, 682: 764, 683: 428, 684: 666, 685: 666, 686: 428, 687: 394, 688: 156, 689: 666, 690: 428, 691: 380, 692: 142, 693: 428, 694: 666, 695: 764, 696: 526, 697: 792, 698: 554, 699: 470, 700: 708, 701: 554, 702: 792, 703: 666, 704: 428, 705: 512, 706: 750, 707: 722, 708: 484, 709: 666, 710: 428, 711: 722, 712: 484, 713: 526, 714: 764, 715: 750, 716: 512, 717: 428, 718: 666, 719: 380, 720: 142, 721: 526, 722: 764, 723: 380, 724: 142, 725: 554, 726: 792, 727: 554, 728: 792, 729: 666, 730: 428, 731: 394, 732: 156, 733: 156, 734: 394, 735: 512, 736: 750, 737: 512, 738: 750, 739: 750, 740: 512, 741: 666, 742: 428, 743: 750, 744: 512, 745: 470, 746: 708, 747: 428, 748: 666, 749: 470, 750: 708, 751: 428, 752: 666, 753: 484, 754: 722, 755: 708, 756: 470, 757: 470, 758: 708, 759: 708, 760: 470, 761: 296, 762: 58, 763: 666, 764: 428, 765: 708, 766: 470, 767: 512, 768: 750, 769: 708, 770: 470, 771: 764, 772: 526, 773: 764, 774: 526, 775: 708, 776: 470, 777: 512, 778: 750, 779: 470, 780: 708, 781: 666, 782: 428, 783: 394, 784: 156, 785: 428, 786: 666, 787: 750, 788: 512, 789: 512, 790: 750, 791: 428, 792: 666, 793: 394, 794: 156, 795: 708, 796: 470, 797: 142, 798: 380, 799: 708, 800: 470, 801: 428, 802: 666, 803: 142, 804: 380, 805: 764, 806: 526, 807: 380, 808: 142, 809: 764, 810: 526, 811: 708, 812: 470, 813: 484, 814: 722, 815: 470, 816: 708, 817: 666, 818: 428, 819: 526, 820: 764, 821: 428, 822: 666, 823: 156, 824: 394, 825: 428, 826: 666, 827: 750, 828: 512, 829: 484, 830: 722, 831: 428, 832: 666, 833: 380, 834: 142, 835: 750, 836: 512, 837: 666, 838: 428, 839: 708, 840: 470, 841: 470, 842: 708, 843: 750, 844: 512, 845: 428, 846: 666, 847: 296, 848: 58, 849: 428, 850: 666, 851: 750, 852: 512, 853: 554, 854: 792, 855: 380, 856: 142, 857: 554, 858: 792, 859: 380, 860: 142, 861: 142, 862: 380, 863: 470, 864: 708, 865: 554, 866: 792, 867: 792, 868: 554, 869: 380, 870: 142, 871: 470, 872: 708, 873: 470, 874: 708, 875: 296, 876: 58, 877: 750, 878: 512, 879: 484, 880: 722, 881: 428, 882: 666, 883: 708, 884: 470, 885: 470, 886: 708, 887: 142, 888: 380, 889: 750, 890: 512, 891: 554, 892: 792, 893: 484, 894: 722, 895: 142, 896: 380, 897: 394, 898: 156, 899: 750, 900: 512, 901: 470, 902: 708, 903: 484, 904: 722, 905: 554, 906: 792, 907: 526, 908: 764, 909: 792, 910: 554, 911: 142, 912: 380, 913: 554, 914: 792, 915: 708, 916: 470}
Number of labels used: 18
Total time: 216.69 sec
Memory: 560.27 MB
=============================================

========== NEW INCUMBENT SOLUTION ==========
{1: 296, 2: 58, 3: 666, 4: 428, 5: 554, 6: 792, 7: 666, 8: 428, 9: 666, 10: 428, 11: 666, 12: 428, 13: 554, 14: 792, 15: 142, 16: 380, 17: 792, 18: 554, 19: 428, 20: 666, 21: 470, 22: 708, 23: 526, 24: 764, 25: 156, 26: 394, 27: 708, 28: 470, 29: 156, 30: 394, 31: 666, 32: 428, 33: 156, 34: 394, 35: 666, 36: 428, 37: 792, 38: 554, 39: 512, 40: 750, 41: 156, 42: 394, 43: 708, 44: 470, 45: 394, 46: 156, 47: 394, 48: 156, 49: 156, 50: 394, 51: 666, 52: 428, 53: 428, 54: 666, 55: 750, 56: 512, 57: 428, 58: 666, 59: 708, 60: 470, 61: 708, 62: 470, 63: 470, 64: 708, 65: 428, 66: 666, 67: 526, 68: 764, 69: 708, 70: 470, 71: 666, 72: 428, 73: 750, 74: 512, 75: 394, 76: 156, 77: 484, 78: 722, 79: 470, 80: 708, 81: 470, 82: 708, 83: 708, 84: 470, 85: 554, 86: 792, 87: 394, 88: 156, 89: 380, 90: 142, 91: 428, 92: 666, 93: 470, 94: 708, 95: 428, 96: 666, 97: 484, 98: 722, 99: 428, 100: 666, 101: 484, 102: 722, 103: 394, 104: 156, 105: 792, 106: 554, 107: 708, 108: 470, 109: 428, 110: 666, 111: 666, 112: 428, 113: 156, 114: 394, 115: 380, 116: 142, 117: 156, 118: 394, 119: 428, 120: 666, 121: 764, 122: 526, 123: 470, 124: 708, 125: 512, 126: 750, 127: 428, 128: 666, 129: 428, 130: 666, 131: 484, 132: 722, 133: 470, 134: 708, 135: 484, 136: 722, 137: 142, 138: 380, 139: 470, 140: 708, 141: 470, 142: 708, 143: 666, 144: 428, 145: 470, 146: 708, 147: 666, 148: 428, 149: 722, 150: 484, 151: 666, 152: 428, 153: 512, 154: 750, 155: 156, 156: 394, 157: 764, 158: 526, 159: 764, 160: 526, 161: 526, 162: 764, 163: 666, 164: 428, 165: 296, 166: 58, 167: 156, 168: 394, 169: 428, 170: 666, 171: 58, 172: 296, 173: 666, 174: 428, 175: 708, 176: 470, 177: 512, 178: 750, 179: 156, 180: 394, 181: 708, 182: 470, 183: 792, 184: 554, 185: 394, 186: 156, 187: 554, 188: 792, 189: 722, 190: 484, 191: 792, 192: 554, 193: 142, 194: 380, 195: 708, 196: 470, 197: 666, 198: 428, 199: 666, 200: 428, 201: 792, 202: 554, 203: 708, 204: 470, 205: 554, 206: 792, 207: 792, 208: 554, 209: 470, 210: 708, 211: 428, 212: 666, 213: 470, 214: 708, 215: 156, 216: 394, 217: 428, 218: 666, 219: 512, 220: 750, 221: 708, 222: 470, 223: 792, 224: 554, 225: 512, 226: 750, 227: 792, 228: 554, 229: 470, 230: 708, 231: 666, 232: 428, 233: 722, 234: 484, 235: 666, 236: 428, 237: 666, 238: 428, 239: 156, 240: 394, 241: 156, 242: 394, 243: 666, 244: 428, 245: 708, 246: 470, 247: 156, 248: 394, 249: 428, 250: 666, 251: 156, 252: 394, 253: 470, 254: 708, 255: 554, 256: 792, 257: 484, 258: 722, 259: 666, 260: 428, 261: 750, 262: 512, 263: 554, 264: 792, 265: 484, 266: 722, 267: 708, 268: 470, 269: 666, 270: 428, 271: 512, 272: 750, 273: 394, 274: 156, 275: 722, 276: 484, 277: 470, 278: 708, 279: 428, 280: 666, 281: 156, 282: 394, 283: 526, 284: 764, 285: 142, 286: 380, 287: 156, 288: 394, 289: 792, 290: 554, 291: 708, 292: 470, 293: 526, 294: 764, 295: 512, 296: 750, 297: 554, 298: 792, 299: 526, 300: 764, 301: 296, 302: 58, 303: 470, 304: 708, 305: 484, 306: 722, 307: 156, 308: 394, 309: 394, 310: 156, 311: 666, 312: 428, 313: 394, 314: 156, 315: 792, 316: 554, 317: 428, 318: 666, 319: 750, 320: 512, 321: 428, 322: 666, 323: 750, 324: 512, 325: 666, 326: 428, 327: 708, 328: 470, 329: 484, 330: 722, 331: 708, 332: 470, 333: 142, 334: 380, 335: 722, 336: 484, 337: 428, 338: 666, 339: 792, 340: 554, 341: 484, 342: 722, 343: 708, 344: 470, 345: 764, 346: 526, 347: 156, 348: 394, 349: 512, 350: 750, 351: 792, 352: 554, 353: 470, 354: 708, 355: 708, 356: 470, 357: 708, 358: 470, 359: 554, 360: 792, 361: 428, 362: 666, 363: 428, 364: 666, 365: 666, 366: 428, 367: 156, 368: 394, 369: 722, 370: 484, 371: 792, 372: 554, 373: 750, 374: 512, 375: 470, 376: 708, 377: 750, 378: 512, 379: 554, 380: 792, 381: 470, 382: 708, 383: 526, 384: 764, 385: 526, 386: 764, 387: 470, 388: 708, 389: 470, 390: 708, 391: 156, 392: 394, 393: 470, 394: 708, 395: 792, 396: 554, 397: 512, 398: 750, 399: 666, 400: 428, 401: 428, 402: 666, 403: 156, 404: 394, 405: 512, 406: 750, 407: 512, 408: 750, 409: 750, 410: 512, 411: 142, 412: 380, 413: 394, 414: 156, 415: 666, 416: 428, 417: 792, 418: 554, 419: 722, 420: 484, 421: 708, 422: 470, 423: 142, 424: 380, 425: 428, 426: 666, 427: 708, 428: 470, 429: 380, 430: 142, 431: 512, 432: 750, 433: 666, 434: 428, 435: 428, 436: 666, 437: 750, 438: 512, 439: 666, 440: 428, 441: 380, 442: 142, 443: 512, 444: 750, 445: 428, 446: 666, 447: 750, 448: 512, 449: 708, 450: 470, 451: 428, 452: 666, 453: 156, 454: 394, 455: 750, 456: 512, 457: 484, 458: 722, 459: 708, 460: 470, 461: 526, 462: 764, 463: 156, 464: 394, 465: 526, 466: 764, 467: 428, 468: 666, 469: 428, 470: 666, 471: 764, 472: 526, 473: 296, 474: 58, 475: 512, 476: 750, 477: 512, 478: 750, 479: 750, 480: 512, 481: 708, 482: 470, 483: 666, 484: 428, 485: 484, 486: 722, 487: 512, 488: 750, 489: 722, 490: 484, 491: 380, 492: 142, 493: 512, 494: 750, 495: 512, 496: 750, 497: 428, 498: 666, 499: 484, 500: 722, 501: 708, 502: 470, 503: 764, 504: 526, 505: 470, 506: 708, 507: 484, 508: 722, 509: 722, 510: 484, 511: 554, 512: 792, 513: 554, 514: 792, 515: 428, 516: 666, 517: 470, 518: 708, 519: 554, 520: 792, 521: 156, 522: 394, 523: 750, 524: 512, 525: 554, 526: 792, 527: 394, 528: 156, 529: 156, 530: 394, 531: 156, 532: 394, 533: 526, 534: 764, 535: 380, 536: 142, 537: 666, 538: 428, 539: 708, 540: 470, 541: 764, 542: 526, 543: 484, 544: 722, 545: 708, 546: 470, 547: 156, 548: 394, 549: 428, 550: 666, 551: 512, 552: 750, 553: 512, 554: 750, 555: 708, 556: 470, 557: 484, 558: 722, 559: 470, 560: 708, 561: 666, 562: 428, 563: 666, 564: 428, 565: 484, 566: 722, 567: 750, 568: 512, 569: 750, 570: 512, 571: 708, 572: 470, 573: 708, 574: 470, 575: 394, 576: 156, 577: 296, 578: 58, 579: 470, 580: 708, 581: 666, 582: 428, 583: 512, 584: 750, 585: 722, 586: 484, 587: 470, 588: 708, 589: 722, 590: 484, 591: 708, 592: 470, 593: 750, 594: 512, 595: 484, 596: 722, 597: 708, 598: 470, 599: 142, 600: 380, 601: 722, 602: 484, 603: 470, 604: 708, 605: 470, 606: 708, 607: 792, 608: 554, 609: 156, 610: 394, 611: 666, 612: 428, 613: 750, 614: 512, 615: 428, 616: 666, 617: 666, 618: 428, 619: 750, 620: 512, 621: 512, 622: 750, 623: 156, 624: 394, 625: 156, 626: 394, 627: 750, 628: 512, 629: 156, 630: 394, 631: 792, 632: 554, 633: 750, 634: 512, 635: 750, 636: 512, 637: 296, 638: 58, 639: 470, 640: 708, 641: 792, 642: 554, 643: 526, 644: 764, 645: 394, 646: 156, 647: 526, 648: 764, 649: 470, 650: 708, 651: 470, 652: 708, 653: 484, 654: 722, 655: 470, 656: 708, 657: 554, 658: 792, 659: 750, 660: 512, 661: 722, 662: 484, 663: 708, 664: 470, 665: 470, 666: 708, 667: 470, 668: 708, 669: 554, 670: 792, 671: 750, 672: 512, 673: 722, 674: 484, 675: 428, 676: 666, 677: 554, 678: 792, 679: 380, 680: 142, 681: 526, 682: 764, 683: 428, 684: 666, 685: 666, 686: 428, 687: 394, 688: 156, 689: 666, 690: 428, 691: 380, 692: 142, 693: 428, 694: 666, 695: 764, 696: 526, 697: 792, 698: 554, 699: 470, 700: 708, 701: 554, 702: 792, 703: 666, 704: 428, 705: 512, 706: 750, 707: 722, 708: 484, 709: 666, 710: 428, 711: 722, 712: 484, 713: 526, 714: 764, 715: 750, 716: 512, 717: 428, 718: 666, 719: 380, 720: 142, 721: 526, 722: 764, 723: 380, 724: 142, 725: 554, 726: 792, 727: 554, 728: 792, 729: 666, 730: 428, 731: 394, 732: 156, 733: 156, 734: 394, 735: 512, 736: 750, 737: 512, 738: 750, 739: 750, 740: 512, 741: 666, 742: 428, 743: 750, 744: 512, 745: 470, 746: 708, 747: 428, 748: 666, 749: 470, 750: 708, 751: 428, 752: 666, 753: 484, 754: 722, 755: 708, 756: 470, 757: 470, 758: 708, 759: 708, 760: 470, 761: 296, 762: 58, 763: 666, 764: 428, 765: 708, 766: 470, 767: 512, 768: 750, 769: 708, 770: 470, 771: 764, 772: 526, 773: 764, 774: 526, 775: 708, 776: 470, 777: 512, 778: 750, 779: 470, 780: 708, 781: 666, 782: 428, 783: 394, 784: 156, 785: 428, 786: 666, 787: 750, 788: 512, 789: 512, 790: 750, 791: 428, 792: 666, 793: 394, 794: 156, 795: 708, 796: 470, 797: 142, 798: 380, 799: 708, 800: 470, 801: 428, 802: 666, 803: 142, 804: 380, 805: 764, 806: 526, 807: 380, 808: 142, 809: 764, 810: 526, 811: 708, 812: 470, 813: 484, 814: 722, 815: 470, 816: 708, 817: 666, 818: 428, 819: 526, 820: 764, 821: 428, 822: 666, 823: 156, 824: 394, 825: 428, 826: 666, 827: 750, 828: 512, 829: 484, 830: 722, 831: 428, 832: 666, 833: 380, 834: 142, 835: 750, 836: 512, 837: 666, 838: 428, 839: 708, 840: 470, 841: 470, 842: 708, 843: 750, 844: 512, 845: 428, 846: 666, 847: 296, 848: 58, 849: 428, 850: 666, 851: 750, 852: 512, 853: 554, 854: 792, 855: 380, 856: 142, 857: 554, 858: 792, 859: 380, 860: 142, 861: 142, 862: 380, 863: 470, 864: 708, 865: 554, 866: 792, 867: 792, 868: 554, 869: 380, 870: 142, 871: 470, 872: 708, 873: 470, 874: 708, 875: 296, 876: 58, 877: 750, 878: 512, 879: 484, 880: 722, 881: 428, 882: 666, 883: 708, 884: 470, 885: 470, 886: 708, 887: 142, 888: 380, 889: 750, 890: 512, 891: 554, 892: 792, 893: 484, 894: 722, 895: 142, 896: 380, 897: 394, 898: 156, 899: 750, 900: 512, 901: 470, 902: 708, 903: 484, 904: 722, 905: 554, 906: 792, 907: 526, 908: 764, 909: 792, 910: 554, 911: 142, 912: 380, 913: 554, 914: 792, 915: 708, 916: 470}
Number of labels used: 18
Total time: 216.71 sec
Memory: 563.66 MB
=============================================
[runlim] sample:		270.4 time, 220.1 real, 660.4 MB
[runlim] sample:		290.4 time, 230.1 real, 679.0 MB
[runlim] sample:		310.3 time, 240.1 real, 663.2 MB
[runlim] sample:		330.3 time, 250.1 real, 664.2 MB
[runlim] sample:		350.3 time, 260.1 real, 664.9 MB
[runlim] sample:		370.3 time, 270.1 real, 675.9 MB
[runlim] sample:		390.3 time, 280.1 real, 676.0 MB
[runlim] sample:		410.3 time, 290.1 real, 676.1 MB
[runlim] sample:		430.3 time, 300.1 real, 676.4 MB
[runlim] sample:		450.3 time, 310.1 real, 676.5 MB
[runlim] sample:		470.3 time, 320.1 real, 676.6 MB
[runlim] sample:		490.3 time, 330.1 real, 676.6 MB
[runlim] sample:		510.3 time, 340.1 real, 676.7 MB
[runlim] sample:		530.3 time, 350.1 real, 676.7 MB
[runlim] sample:		550.3 time, 360.1 real, 676.9 MB
[runlim] sample:		570.3 time, 370.1 real, 676.9 MB
[runlim] sample:		590.2 time, 380.1 real, 677.0 MB
[runlim] sample:		610.2 time, 390.1 real, 677.0 MB
[runlim] sample:		630.2 time, 400.1 real, 677.1 MB
[runlim] sample:		650.2 time, 410.1 real, 677.1 MB
[runlim] sample:		670.2 time, 420.1 real, 677.1 MB
[runlim] sample:		690.2 time, 430.1 real, 677.1 MB
[runlim] sample:		710.2 time, 440.1 real, 677.1 MB
[runlim] sample:		730.2 time, 450.1 real, 677.1 MB
[runlim] sample:		750.2 time, 460.1 real, 677.1 MB
[runlim] sample:		770.2 time, 470.1 real, 677.1 MB
[runlim] sample:		790.1 time, 480.1 real, 677.1 MB
[runlim] sample:		810.1 time, 490.1 real, 677.1 MB
[runlim] sample:		830.1 time, 500.1 real, 677.1 MB
[runlim] sample:		850.1 time, 510.1 real, 677.1 MB
[runlim] sample:		870.1 time, 520.1 real, 677.1 MB
[runlim] sample:		890.1 time, 530.1 real, 677.1 MB
[runlim] sample:		910.1 time, 540.1 real, 677.1 MB
[runlim] sample:		930.1 time, 550.1 real, 677.1 MB
[runlim] sample:		950.1 time, 560.1 real, 677.1 MB
[runlim] sample:		970.1 time, 570.1 real, 677.1 MB
[runlim] sample:		990.1 time, 580.1 real, 677.1 MB
[runlim] sample:		1010.1 time, 590.1 real, 677.1 MB
[runlim] sample:		1030.1 time, 600.1 real, 677.1 MB
[runlim] end:			Tue Jan 20 20:06:37 2026
[runlim] status:		out of time
[runlim] result:		2
[runlim] children:		0
[runlim] real:			600.11 seconds
[runlim] time:			1030.11 seconds
[runlim] space:			1175.1 MB
[runlim] samples:		6000
